46759183620760214965012,6,1,2,011,6,1,2,010,8,1,2,02,12,1,2,04,15,1,2,03,8,1,2,07,9,1,2,04,9,1,2,06,11,1,2,07,14,1,2,013,12,1,2,02,12,1,2,03,2,1,2,06,13,1,2,06,3,1,2,013,13,1,2,03,10,1,2,04,3,1,2,03,4,1,2,03,3,1,2,012,6,1,2,012,9,1,2,07,15,1,2,08,15,1,2,015,8,1,2,013,14,1,2,03,6,1,2,013,11,1,2,05,8,1,2,02,4,1,2,015,7,1,2,06,4,1,2,07,2,1,2,01,10,1,2,013,3,1,2,04,10,1,2,011,13,1,2,06,6,1,2,015,11,1,2,015,8,1,2,013,4,1,2,010,9,1,2,010,8,1,2,01,10,1,2,04,12,1,2,02,7,1,2,013,14,1,2,05,9,1,2,07,1,1,2,01,14,1,2,0